; benchmark generated from python API
(set-info :status unknown)
(declare-datatypes ((RealState 0)) (((RMk1 (rval1 Real)) (RMk2 (rval2 Real)))))
 (assert
 (forall ((|v17:0| Real) )(forall ((|v16:1| Real) )(forall ((|v15:2| Real) )(forall ((|v14:3| Real) )(forall ((|v13:4| Real) )(forall ((|v12:5| Real) )(exists ((|v11:6_st| RealState) (val!9006 Real) )(exists ((|v10:7_st| RealState) (val!9007 Real) )(exists ((|v9:8_st| RealState) (val!9008 Real) )(exists ((|v8:9_st| RealState) (val!9009 Real) )(exists ((|v7:10_st| RealState) (val!9010 Real) )(exists ((|v6:11_st| RealState) (val!9011 Real) )(forall ((|v5:12| Real) )(forall ((|v4:13| Real) )(forall ((|v3:14| Real) )(forall ((|v2:15| Real) )(forall ((|v1:16| Real) )(forall ((|v0:17| Real) )(let ((?x115 (- 14.0)))
 (let ((?x5178 (* ?x115 |v5:12|)))
 (let ((?x1606 (- 17.0)))
 (let ((?x6354 (* ?x1606 |v1:16|)))
 (let ((?x8102 (* 9.0 |v0:17|)))
 (let ((?x2528 (+ (+ (+ (* (- 8.0) |v3:14|) (* (- 20.0) (rval2 |v11:6_st|))) ?x8102) ?x6354)))
 (let (($x2627 (<= (+ (+ (+ ?x2528 (* 14.0 |v15:2|)) (* (- 6.0) (rval2 |v7:10_st|))) ?x5178) 14.0)))
 (let ((?x1434 (* 13.0 |v4:13|)))
 (let ((?x3347 (* 10.0 |v15:2|)))
 (let ((?x1477 (* 16.0 |v14:3|)))
 (let ((?x7320 (rval2 |v10:7_st|)))
 (let ((?x4995 (* 17.0 ?x7320)))
 (let ((?x3283 (+ (+ (* 5.0 (rval2 |v11:6_st|)) (* 19.0 |v3:14|)) (* (- 13.0) (rval2 |v9:8_st|)))))
 (let ((?x6313 (* 6.0 |v13:4|)))
 (let ((?x7913 (* 20.0 |v16:1|)))
 (let ((?x1770 (- 2.0)))
 (let ((?x7109 (* ?x1770 |v0:17|)))
 (let ((?x6873 (+ (+ (+ (+ (* (- 18.0) (rval2 |v8:9_st|)) (* 15.0 |v2:15|)) ?x7109) ?x7913) (* (- 7.0) |v16:1|))))
 (let (($x3154 (or (<= (+ (+ ?x6873 ?x1477) ?x6313) 14.0) (<= (+ (+ (+ (+ ?x3283 ?x4995) ?x1477) ?x3347) ?x1434) 0.0))))
 (let ((?x1246 (* 5.0 |v5:12|)))
 (let ((?x5934 (- 7.0)))
 (let ((?x3156 (* ?x5934 |v4:13|)))
 (let ((?x1967 (* 19.0 |v12:5|)))
 (let ((?x9046 (+ (+ (+ (* (- 4.0) (rval2 |v8:9_st|)) (rval2 |v8:9_st|)) (* 8.0 |v4:13|)) ?x1967)))
 (let ((?x7947 (- 19.0)))
 (let ((?x4955 (* ?x115 |v0:17|)))
 (let ((?x2189 (rval2 |v8:9_st|)))
 (let ((?x546 (* 18.0 ?x2189)))
 (let ((?x5919 (* 3.0 |v14:3|)))
 (let ((?x5339 (+ (+ (+ (* 7.0 ?x7320) (* ?x1606 (rval2 |v11:6_st|))) (* (- 11.0) |v3:14|)) ?x5919)))
 (let (($x7753 (or (<= (+ (+ (+ ?x5339 ?x546) ?x4955) (* (- 18.0) (rval2 |v9:8_st|))) ?x7947) (<= (+ (+ (+ ?x9046 ?x3156) ?x1246) (* (- 12.0) ?x7320)) 12.0))))
 (let ((?x5012 (- 12.0)))
 (let ((?x5712 (* 7.0 |v4:13|)))
 (let ((?x3949 (* ?x7947 |v0:17|)))
 (let ((?x2129 (* 19.0 |v5:12|)))
 (let ((?x3254 (* 6.0 ?x2189)))
 (let ((?x5943 (- 15.0)))
 (let ((?x8164 (* ?x5943 |v0:17|)))
 (let ((?x1099 (+ (+ (+ (+ (rval2 |v6:11_st|) (* (- 16.0) (rval2 |v7:10_st|))) ?x8164) ?x3254) ?x2129)))
 (let ((?x3790 (* 2.0 |v15:2|)))
 (let ((?x548 (+ (+ (* 15.0 |v1:16|) (* 18.0 |v0:17|)) (* (- 4.0) |v5:12|))))
 (let (($x2857 (<= (+ (+ (+ (+ ?x548 ?x3790) (* (- 18.0) |v12:5|)) ?x5178) (* ?x5012 |v14:3|)) 4.0)))
 (let (($x3650 (and (and (or $x2857 (<= (+ (+ ?x1099 ?x3949) ?x5712) ?x5012)) $x7753) (or $x3154 $x2627))))
 (let ((?x6045 (- 8.0)))
 (let ((?x5013 (* ?x6045 |v15:2|)))
 (let ((?x6590 (* 13.0 |v5:12|)))
 (let ((?x1002 (+ (+ (+ (* ?x5012 |v17:0|) (* (- 20.0) |v4:13|)) (* (- 1.0) |v5:12|)) ?x6590)))
 (let (($x7541 (<= (+ (+ (+ ?x1002 ?x5013) (* 13.0 |v17:0|)) (* 5.0 (rval2 |v6:11_st|))) 1.0)))
 (let ((?x4778 (* ?x5943 |v5:12|)))
 (let ((?x5042 (- 18.0)))
 (let ((?x3698 (* ?x5042 |v14:3|)))
 (let ((?x2097 (rval2 |v9:8_st|)))
 (let ((?x2724 (- 20.0)))
 (let ((?x1580 (* ?x2724 ?x2097)))
 (let ((?x1560 (rval2 |v7:10_st|)))
 (let ((?x6390 (- 5.0)))
 (let ((?x7094 (* ?x6390 ?x1560)))
 (let ((?x1844 (+ (+ (+ (+ (+ (* 8.0 ?x2189) ?x3254) (* 2.0 ?x1560)) ?x7094) ?x1580) ?x3698)))
 (let ((?x5864 (- 16.0)))
 (let ((?x6562 (* ?x5864 ?x1560)))
 (let ((?x2128 (* 18.0 |v14:3|)))
 (let ((?x5128 (- 9.0)))
 (let ((?x141 (* ?x5128 |v5:12|)))
 (let ((?x2887 (* 5.0 |v0:17|)))
 (let ((?x433 (- 4.0)))
 (let ((?x277 (* ?x433 |v0:17|)))
 (let ((?x2509 (+ (+ (+ (+ (* 11.0 |v14:3|) (* (- 11.0) (rval2 |v11:6_st|))) ?x277) ?x2887) ?x141)))
 (let (($x3971 (and (and (<= (+ (+ ?x2509 ?x2128) ?x6562) 17.0) (<= (+ ?x1844 ?x4778) 18.0)) $x7541)))
 (let ((?x2914 (* 2.0 |v0:17|)))
 (let ((?x3311 (* ?x2724 |v3:14|)))
 (let ((?x6600 (* ?x6390 |v14:3|)))
 (let ((?x4870 (* 18.0 |v5:12|)))
 (let ((?x3023 (+ (+ (+ (* (- 13.0) |v5:12|) (* (- 6.0) |v5:12|)) (* 0.0 |v13:4|)) ?x4870)))
 (let ((?x8448 (* ?x5934 |v0:17|)))
 (let ((?x7171 (* ?x433 |v1:16|)))
 (let ((?x7666 (+ (+ (+ (* 0.0 (rval2 |v11:6_st|)) (* 17.0 |v5:12|)) (* (- 11.0) |v16:1|)) ?x7171)))
 (let (($x3208 (<= (+ (+ (+ ?x7666 (* ?x5128 ?x1560)) ?x8448) (* ?x1770 (rval2 |v11:6_st|))) 18.0)))
 (let ((?x4492 (* 15.0 |v13:4|)))
 (let ((?x7270 (rval2 |v11:6_st|)))
 (let ((?x8516 (* ?x1606 ?x7270)))
 (let ((?x8822 (* ?x5934 |v12:5|)))
 (let ((?x4088 (* 0.0 ?x2189)))
 (let ((?x738 (+ (+ (+ (* 2.0 |v14:3|) (* ?x1606 (rval2 |v6:11_st|))) (* ?x115 |v12:5|)) ?x4088)))
 (let ((?x676 (- 6.0)))
 (let ((?x4213 (* 15.0 ?x7270)))
 (let ((?x2194 (+ (+ (+ (+ (* ?x6390 |v4:13|) (* 10.0 |v16:1|)) (* ?x5012 ?x1560)) ?x6313) (* 12.0 ?x1560))))
 (let (($x7629 (or (<= (+ (+ ?x2194 (* 10.0 |v17:0|)) ?x4213) ?x676) (<= (+ (+ (+ ?x738 ?x8822) ?x8516) ?x4492) 13.0))))
 (let ((?x7248 (* 2.0 ?x2189)))
 (let ((?x2338 (* ?x676 ?x2097)))
 (let ((?x7768 (rval2 |v6:11_st|)))
 (let ((?x8573 (* 2.0 ?x7768)))
 (let ((?x8869 (+ (+ (+ (+ (* 15.0 |v0:17|) (* (- 1.0) ?x2189)) (* ?x6390 |v13:4|)) ?x8573) ?x2338)))
 (let ((?x466 (* 13.0 |v3:14|)))
 (let ((?x790 (* 17.0 |v0:17|)))
 (let ((?x2897 (* ?x6390 |v2:15|)))
 (let ((?x262 (* 7.0 ?x7768)))
 (let ((?x6599 (+ (+ (+ (* 8.0 |v13:4|) (* 8.0 |v13:4|)) (* (- 3.0) |v12:5|)) ?x262)))
 (let (($x2780 (and (<= (+ (+ (+ ?x6599 ?x2897) ?x790) ?x466) 10.0) (<= (+ (+ ?x8869 (* 10.0 |v14:3|)) ?x7248) 20.0))))
 (let ((?x6208 (- 10.0)))
 (let ((?x1297 (* 11.0 ?x2189)))
 (let ((?x8799 (* 14.0 |v4:13|)))
 (let ((?x1353 (+ (+ (+ (+ ?x6562 (* ?x5128 |v12:5|)) (* 2.0 |v1:16|)) (* 19.0 |v17:0|)) (* ?x6208 ?x7768))))
 (let ((?x2087 (- 13.0)))
 (let ((?x846 (* ?x1606 |v2:15|)))
 (let ((?x6848 (* ?x5042 |v5:12|)))
 (let ((?x3344 (+ (+ (+ (* 9.0 ?x1560) (* 16.0 ?x7768)) (* ?x5042 |v16:1|)) (* ?x6208 |v15:2|))))
 (let (($x4847 (or (<= (+ (+ (+ ?x3344 ?x6848) ?x7094) ?x846) ?x2087) (<= (+ (+ ?x1353 ?x8799) ?x1297) ?x6208))))
 (let ((?x6031 (* 9.0 |v3:14|)))
 (let ((?x1406 (* 13.0 |v0:17|)))
 (let ((?x5173 (* 19.0 ?x7320)))
 (let ((?x1893 (+ (+ (+ (* (- 11.0) |v12:5|) (* 16.0 ?x7320)) (* (- 11.0) |v0:17|)) ?x1477)))
 (let ((?x2032 (* 12.0 |v15:2|)))
 (let ((?x3791 (* 10.0 ?x7270)))
 (let ((?x2506 (+ (+ (+ (+ (* (- 11.0) |v15:2|) ?x546) (* ?x5012 |v1:16|)) (* ?x6390 |v3:14|)) ?x3791)))
 (let (($x1974 (or (<= (+ (+ ?x2506 (* 14.0 ?x7270)) ?x2032) ?x5934) (<= (+ (+ (+ ?x1893 ?x5173) ?x1406) ?x6031) ?x7947))))
 (let (($x5746 (or (or (or (or $x1974 $x4847) (and $x2780 $x7629)) $x3208) (or (or (<= (+ (+ (+ ?x3023 ?x6600) ?x3311) ?x2914) ?x1606) $x3971) $x3650))))
 (let ((?x6859 (* 15.0 |v2:15|)))
 (let ((?x4454 (* 5.0 |v4:13|)))
 (let ((?x5246 (* ?x6390 |v0:17|)))
 (let ((?x7194 (+ (+ (+ (+ (* ?x5943 |v16:1|) (* (- 11.0) |v2:15|)) (* ?x5012 ?x7768)) ?x5246) (* ?x2087 |v14:3|))))
 (let ((?x3982 (* 19.0 |v17:0|)))
 (let ((?x3323 (+ (+ (+ (+ (* 13.0 ?x7320) (* 19.0 ?x1560)) ?x7270) (* 13.0 |v16:1|)) ?x2097)))
 (let (($x4974 (and (<= (+ (+ ?x3323 ?x3982) (* ?x7947 |v16:1|)) ?x2087) (<= (+ (+ ?x7194 ?x4454) ?x6859) 2.0))))
 (let ((?x8661 (* 9.0 |v12:5|)))
 (let ((?x72 (- 11.0)))
 (let ((?x1417 (* ?x72 |v0:17|)))
 (let ((?x4138 (* ?x6208 |v4:13|)))
 (let ((?x4552 (+ (+ (+ (* 2.0 |v2:15|) (* 9.0 ?x7270)) (* ?x5042 ?x7320)) (* (- 3.0) |v17:0|))))
 (let ((?x1485 (* ?x433 ?x1560)))
 (let ((?x8747 (* ?x7947 |v12:5|)))
 (let ((?x4127 (* 16.0 |v13:4|)))
 (let ((?x5273 (* ?x676 |v5:12|)))
 (let ((?x4332 (+ (+ (+ (+ (* ?x676 ?x2189) (* ?x5864 |v15:2|)) (* 6.0 ?x7270)) ?x5273) ?x4127)))
 (let (($x2947 (or (<= (+ (+ ?x4332 ?x8747) ?x1485) ?x1606) (<= (+ (+ (+ ?x4552 ?x4138) ?x1417) ?x8661) ?x1606))))
 (let ((?x127 (* 6.0 |v12:5|)))
 (let ((?x1621 (+ (+ (+ (+ (* 19.0 |v13:4|) ?x8799) (* ?x6390 |v4:13|)) (* 4.0 ?x7768)) ?x127)))
 (let ((?x7459 (* 16.0 |v0:17|)))
 (let ((?x5179 (* 8.0 ?x2097)))
 (let ((?x4021 (+ (+ (+ (+ (* ?x72 |v13:4|) ?x3698) (* 20.0 |v5:12|)) (* ?x2724 ?x7320)) |v3:14|)))
 (let (($x4571 (and (<= (+ (+ ?x4021 ?x5179) ?x7459) 1.0) (<= (+ (+ ?x1621 ?x4778) (* 19.0 ?x7768)) ?x6390))))
 (let ((?x2421 (* ?x1606 ?x7768)))
 (let ((?x5650 (* 11.0 |v2:15|)))
 (let ((?x4706 (+ (+ (+ (+ ?x5178 (* 15.0 ?x2097)) (* 2.0 |v14:3|)) (* 13.0 |v13:4|)) ?x2097)))
 (let ((?x8100 (* ?x2724 |v1:16|)))
 (let ((?x4854 (* 16.0 ?x1560)))
 (let ((?x4660 (+ (+ (+ (+ (* 20.0 |v0:17|) (* ?x5042 |v15:2|)) (* ?x5864 |v17:0|)) ?x4854) ?x8100)))
 (let (($x3091 (or (<= (+ (+ ?x4660 (* ?x2087 |v17:0|)) ?x8661) ?x6045) (<= (+ (+ ?x4706 ?x5650) ?x2421) 1.0))))
 (let ((?x350 (* 0.0 ?x7320)))
 (let ((?x3273 (* ?x6045 ?x7270)))
 (let ((?x2169 (* 11.0 |v16:1|)))
 (let ((?x1674 (* ?x433 |v12:5|)))
 (let ((?x7179 (+ (+ (+ (+ (* ?x433 |v17:0|) (* 2.0 |v14:3|)) (* 18.0 |v3:14|)) ?x1674) ?x2169)))
 (let ((?x6325 (* 2.0 ?x7270)))
 (let ((?x8537 (* ?x5012 |v3:14|)))
 (let ((?x5734 (+ (+ (+ (+ (* ?x5943 |v13:4|) (* ?x72 ?x2189)) (* 2.0 ?x1560)) ?x8537) ?x141)))
 (let (($x4803 (and (<= (+ (+ ?x5734 ?x2897) ?x6325) ?x433) (<= (+ (+ ?x7179 ?x3273) ?x350) 11.0))))
 (let ((?x2339 (* 0.0 |v3:14|)))
 (let ((?x1124 (* 19.0 |v2:15|)))
 (let ((?x6746 (* ?x5864 ?x2097)))
 (let ((?x2092 (+ (+ (+ (+ (* ?x5128 |v16:1|) (* ?x5934 ?x7270)) ?x7248) (* 7.0 |v16:1|)) ?x6746)))
 (let ((?x5119 (* ?x5864 |v3:14|)))
 (let ((?x5411 (* ?x5012 |v1:16|)))
 (let ((?x4457 (* 10.0 |v2:15|)))
 (let ((?x8798 (+ (+ (+ (+ (* ?x5943 |v15:2|) (* 12.0 |v4:13|)) (* ?x2087 |v2:15|)) ?x141) ?x4457)))
 (let (($x2213 (and (<= (+ (+ ?x8798 ?x5411) ?x5119) 12.0) (<= (+ (+ ?x2092 ?x1124) ?x2339) 13.0))))
 (let ((?x6904 (* ?x1606 |v17:0|)))
 (let ((?x2716 (+ (+ (+ (+ (+ ?x1674 (* ?x676 |v4:13|)) (* ?x5934 |v1:16|)) ?x8822) ?x6904) (* ?x115 ?x7768))))
 (let ((?x4499 (* 14.0 ?x1560)))
 (let ((?x4770 (* ?x72 |v2:15|)))
 (let ((?x3481 (- 3.0)))
 (let ((?x6627 (* ?x3481 |v15:2|)))
 (let ((?x2749 (* ?x6045 ?x7320)))
 (let ((?x1728 (+ (+ (+ (+ (* ?x3481 |v13:4|) (* ?x5943 |v17:0|)) (* 18.0 ?x2097)) ?x2749) ?x6627)))
 (let (($x5504 (or (<= (+ (+ ?x1728 ?x4770) ?x4499) 12.0) (<= (+ ?x2716 (* 11.0 |v17:0|)) ?x5128))))
 (let ((?x7937 (* ?x5128 |v3:14|)))
 (let ((?x8295 (* ?x2724 ?x7270)))
 (let ((?x4273 (* 9.0 |v5:12|)))
 (let ((?x5567 (+ (+ (+ (+ (* 3.0 |v5:12|) (* 18.0 ?x7270)) ?x5013) (* 16.0 ?x7270)) ?x4273)))
 (let ((?x3115 (* ?x5934 |v1:16|)))
 (let ((?x1467 (* 10.0 ?x1560)))
 (let ((?x540 (+ (+ (+ (+ (+ (* 18.0 ?x7320) ?x2338) (* ?x433 |v16:1|)) ?x8537) ?x1467) ?x546)))
 (let (($x6420 (or (and (<= (+ ?x540 ?x3115) ?x7947) (<= (+ (+ ?x5567 ?x8295) ?x7937) 9.0)) $x5504)))
 (let ((?x3205 (- 1.0)))
 (let ((?x7539 (* ?x3205 |v0:17|)))
 (let ((?x7414 (+ (+ (+ (+ ?x5273 (* 17.0 |v13:4|)) (* ?x3481 |v12:5|)) (* 5.0 ?x1560)) ?x8448)))
 (let ((?x3905 (* 6.0 |v16:1|)))
 (let ((?x6472 (* ?x5943 |v2:15|)))
 (let ((?x8819 (* 11.0 |v15:2|)))
 (let ((?x77 (+ (+ (+ (+ (* 4.0 |v13:4|) (* ?x5864 ?x2189)) (* 3.0 |v4:13|)) ?x8819) ?x6472)))
 (let (($x1191 (or (<= (+ (+ ?x77 ?x6600) ?x3905) 2.0) (<= (+ (+ ?x7414 (* ?x676 ?x7270)) ?x7539) 19.0))))
 (let ((?x795 (+ (+ (+ (* ?x6045 |v16:1|) (* 8.0 |v0:17|)) (* ?x5128 |v16:1|)) (* ?x6390 |v15:2|))))
 (let ((?x3889 (* 4.0 |v2:15|)))
 (let ((?x167 (* 7.0 |v13:4|)))
 (let ((?x4022 (* 7.0 ?x7270)))
 (let ((?x6175 (* 13.0 |v16:1|)))
 (let ((?x728 (+ (+ (+ (+ (* 2.0 |v3:14|) (* ?x5864 |v4:13|)) (* ?x5042 |v16:1|)) ?x6175) ?x4022)))
 (let (($x4124 (and (<= (+ (+ ?x728 ?x167) ?x3889) 20.0) (<= (+ (+ (+ ?x795 ?x350) (* ?x6208 |v12:5|)) (* ?x5128 |v15:2|)) ?x3205))))
 (let ((?x3664 (* 17.0 |v5:12|)))
 (let ((?x3099 (* 2.0 |v16:1|)))
 (let ((?x5168 (* ?x1770 ?x7768)))
 (let ((?x5241 (+ (+ (+ (+ (* 4.0 |v4:13|) (* 11.0 |v1:16|)) (* ?x2724 ?x2189)) ?x5168) ?x3099)))
 (let ((?x11 (* ?x5042 |v15:2|)))
 (let ((?x3514 (* ?x5012 |v4:13|)))
 (let ((?x272 (* ?x115 |v3:14|)))
 (let ((?x1697 (+ (+ (+ (+ (+ (* ?x5864 |v1:16|) ?x4955) (* ?x5042 |v16:1|)) |v0:17|) ?x272) ?x3514)))
 (let ((?x9036 (* 16.0 |v4:13|)))
 (let ((?x3029 (* 15.0 ?x7768)))
 (let ((?x2788 (* 11.0 ?x2097)))
 (let ((?x3028 (+ (+ (+ (+ ?x3273 (* ?x3205 |v4:13|)) (* 7.0 |v0:17|)) (* ?x6390 ?x7270)) ?x2788)))
 (let ((?x4541 (* 15.0 |v1:16|)))
 (let ((?x1187 (+ (+ (+ (+ ?x6562 (* 11.0 ?x7320)) (* ?x72 ?x2097)) (* 4.0 ?x7320)) (* ?x5864 ?x7270))))
 (let ((?x4308 (* 10.0 ?x7320)))
 (let ((?x2431 (+ (+ (+ (+ (* 5.0 ?x7320) ?x1580) (* ?x2087 |v2:15|)) (* 3.0 |v5:12|)) ?x4308)))
 (let (($x5802 (and (<= (+ (+ ?x2431 (* 19.0 ?x2189)) ?x3099) 5.0) (<= (+ (+ ?x1187 (* ?x115 |v16:1|)) ?x4541) ?x7947))))
 (let (($x355 (or $x5802 (and (<= (+ (+ ?x3028 ?x3029) ?x9036) ?x2087) (<= (+ ?x1697 ?x11) 20.0)))))
 (let ((?x5467 (* 9.0 ?x7768)))
 (let ((?x1268 (* ?x5943 |v16:1|)))
 (let ((?x7241 (* ?x6045 |v2:15|)))
 (let ((?x1718 (+ (+ (+ (+ (* 11.0 |v14:3|) (* ?x6208 |v1:16|)) (* ?x7947 ?x7320)) ?x7241) (* ?x433 ?x7768))))
 (let ((?x1292 (+ (+ (+ (+ (+ ?x1477 (* 9.0 |v13:4|)) ?x8295) (* ?x5042 ?x7768)) ?x6859) (* ?x1770 |v15:2|))))
 (let (($x590 (and (<= (+ ?x1292 (* 0.0 ?x1560)) 18.0) (<= (+ (+ ?x1718 ?x1268) ?x5467) 1.0))))
 (let ((?x3841 (* 5.0 |v13:4|)))
 (let ((?x5099 (* 3.0 ?x7270)))
 (let ((?x6890 (+ (+ (+ (+ (+ ?x3841 (* 2.0 ?x1560)) (* ?x3205 |v15:2|)) ?x4273) ?x5099) ?x3841)))
 (let (($x6838 (or (and (and (<= (+ ?x6890 (* ?x1770 ?x7320)) ?x3481) $x590) $x355) (and (<= (+ (+ ?x5241 ?x6848) ?x3664) 4.0) (and $x4124 $x1191)))))
 (let (($x7698 (and $x6838 (or (or $x6420 (or $x2213 $x4803)) (and (and $x3091 $x4571) (and $x2947 $x4974))))))
 (let ((?x3293 (+ (+ (+ (+ (+ ?x2128 ?x7320) ?x6904) (* ?x2087 ?x7768)) (* ?x3481 ?x2189)) (* ?x676 |v12:5|))))
 (let ((?x2287 (* 13.0 ?x2189)))
 (let ((?x3240 (* ?x115 |v12:5|)))
 (let ((?x597 (+ (+ (+ (+ (* 5.0 |v1:16|) ?x1580) (* 18.0 |v3:14|)) (* 11.0 ?x7270)) ?x3240)))
 (let ((?x4393 (* 10.0 |v13:4|)))
 (let ((?x3722 (* 8.0 |v4:13|)))
 (let ((?x709 (* 16.0 |v2:15|)))
 (let ((?x5217 (+ (+ (+ (+ (* ?x3205 ?x2189) (* ?x1606 |v0:17|)) ?x8799) (* 4.0 |v1:16|)) ?x709)))
 (let ((?x7915 (* 11.0 |v1:16|)))
 (let ((?x5214 (* 19.0 |v4:13|)))
 (let ((?x117 (+ (+ (+ (+ (+ (* 15.0 |v16:1|) ?x6175) ?x5411) (* 16.0 |v16:1|)) ?x5214) ?x2749)))
 (let (($x2906 (and (and (<= (+ ?x117 ?x7915) 9.0) (<= (+ (+ ?x5217 ?x3722) ?x4393) 10.0)) (or (<= (+ (+ ?x597 ?x2287) ?x8100) 20.0) (<= (+ ?x3293 ?x2749) ?x2724)))))
 (let ((?x5432 (* 8.0 |v14:3|)))
 (let ((?x2785 (* 5.0 |v15:2|)))
 (let ((?x1210 (* 9.0 ?x7320)))
 (let ((?x5399 (* 7.0 |v0:17|)))
 (let ((?x6520 (+ (+ (+ (+ (* 3.0 |v13:4|) (* 18.0 ?x7270)) (* 11.0 |v0:17|)) ?x5399) ?x1210)))
 (let ((?x1288 (* ?x5864 |v15:2|)))
 (let ((?x6151 (* ?x1770 |v3:14|)))
 (let ((?x679 (* 8.0 |v17:0|)))
 (let ((?x3872 (* 20.0 |v5:12|)))
 (let ((?x6990 (+ (+ (+ (+ (* ?x1770 |v5:12|) (* 10.0 |v3:14|)) (* 16.0 ?x2097)) ?x3872) ?x679)))
 (let (($x48 (and (<= (+ (+ ?x6990 ?x6151) ?x1288) ?x5864) (<= (+ (+ ?x6520 ?x2785) ?x5432) 8.0))))
 (let ((?x3433 (* 20.0 |v1:16|)))
 (let ((?x3511 (+ (+ (+ (+ ?x3664 (* 20.0 |v0:17|)) (* 19.0 |v15:2|)) (* 5.0 ?x7270)) ?x3433)))
 (let ((?x722 (* ?x5934 ?x2189)))
 (let ((?x6064 (* 3.0 ?x2189)))
 (let ((?x4136 (+ (+ (+ (+ (* ?x1606 |v4:13|) (* ?x72 |v1:16|)) (* ?x5012 |v12:5|)) ?x3254) ?x6064)))
 (let ((?x8197 (* ?x5012 |v12:5|)))
 (let ((?x7436 (* 14.0 |v17:0|)))
 (let ((?x5715 (* ?x3481 ?x2189)))
 (let ((?x3337 (+ (+ (+ (+ (* 9.0 |v16:1|) (* 11.0 |v12:5|)) (* ?x72 ?x7768)) ?x5715) ?x7436)))
 (let (($x7253 (or (<= (+ (+ ?x3337 (* ?x6390 |v16:1|)) ?x8197) ?x7947) (<= (+ (+ ?x4136 ?x722) (* 3.0 |v16:1|)) 12.0))))
 (let ((?x2140 (* 12.0 ?x7768)))
 (let ((?x4369 (* 2.0 |v3:14|)))
 (let ((?x1853 (* ?x433 |v2:15|)))
 (let ((?x4169 (+ (+ (+ (+ (* 13.0 ?x2097) (* ?x2724 ?x7320)) (* ?x676 |v15:2|)) ?x1853) ?x4369)))
 (let ((?x5346 (* 15.0 |v0:17|)))
 (let ((?x3896 (+ (+ (+ (+ (* 0.0 |v17:0|) (* ?x3205 |v4:13|)) ?x5246) (* 16.0 |v5:12|)) (* 14.0 |v13:4|))))
 (let (($x2982 (or (<= (+ (+ ?x3896 ?x6064) ?x5346) ?x676) (<= (+ (+ ?x4169 ?x1417) ?x2140) 2.0))))
 (let ((?x5489 (* 5.0 ?x2097)))
 (let ((?x5319 (* 4.0 |v4:13|)))
 (let ((?x2764 (+ (+ (+ (+ (* ?x5128 |v12:5|) (* ?x5128 |v14:3|)) (* 5.0 |v12:5|)) ?x5319) ?x8747)))
 (let ((?x5559 (* 11.0 |v12:5|)))
 (let ((?x8686 (* ?x115 |v14:3|)))
 (let ((?x354 (+ (+ (+ (+ ?x3722 (* 16.0 ?x7270)) ?x6600) (* ?x3205 |v12:5|)) (* ?x6208 |v16:1|))))
 (let (($x4983 (or (<= (+ (+ ?x354 ?x8686) ?x5559) ?x3481) (<= (+ (+ ?x2764 ?x5489) (* 2.0 |v12:5|)) ?x433))))
 (let ((?x2603 (* ?x6045 |v4:13|)))
 (let ((?x3756 (+ (+ (+ (+ (+ |v1:16| (* 18.0 ?x7768)) (* 0.0 |v16:1|)) ?x2421) ?x8819) (* 9.0 |v14:3|))))
 (let ((?x369 (* 12.0 |v14:3|)))
 (let ((?x4992 (* ?x6390 |v5:12|)))
 (let ((?x1121 (+ (+ (+ (+ (+ (* ?x5042 |v4:13|) ?x4088) ?x6031) (* 8.0 |v13:4|)) ?x4992) ?x369)))
 (let (($x5926 (or (and (<= (+ ?x1121 (* ?x72 |v17:0|)) 7.0) (<= (+ ?x3756 ?x2603) ?x5943)) $x4983)))
 (let (($x1152 (and (and $x5926 (and $x2982 $x7253)) (or (and (<= (+ (+ ?x3511 ?x5246) ?x3905) 15.0) $x48) $x2906))))
 (let ((?x8702 (* ?x5128 ?x7768)))
 (let ((?x2391 (+ (+ (+ (+ (* 12.0 |v0:17|) (* 4.0 |v0:17|)) ?x7539) (* ?x5943 ?x7320)) (* ?x7947 ?x1560))))
 (let ((?x5449 (* ?x5128 |v0:17|)))
 (let ((?x877 (* ?x3481 |v2:15|)))
 (let ((?x3146 (+ (+ (+ (* ?x7947 |v17:0|) (* 15.0 |v15:2|)) (* 14.0 |v12:5|)) (* ?x3481 ?x7320))))
 (let ((?x7898 (* 17.0 ?x2189)))
 (let ((?x3496 (* 8.0 ?x7768)))
 (let ((?x2635 (* 11.0 |v5:12|)))
 (let ((?x8147 (+ (+ (+ (+ (+ ?x8197 (* 15.0 |v3:14|)) (* 15.0 ?x7320)) ?x1580) ?x2635) ?x3496)))
 (let (($x4487 (and (<= (+ ?x8147 ?x7898) ?x6045) (<= (+ (+ (+ ?x3146 (* ?x1770 |v16:1|)) ?x877) ?x5449) ?x72))))
 (let ((?x3482 (* 5.0 |v14:3|)))
 (let ((?x3873 (* ?x6045 |v5:12|)))
 (let ((?x186 (+ (+ (+ (+ (+ (* 5.0 ?x7320) ?x5919) ?x2339) ?x277) (* 12.0 |v12:5|)) ?x3873)))
 (let ((?x1643 (* 7.0 |v14:3|)))
 (let ((?x289 (* ?x5042 ?x7320)))
 (let ((?x209 (+ (+ (+ (+ (* ?x5934 ?x7270) (* ?x6045 |v0:17|)) (* 13.0 |v12:5|)) ?x289) |v4:13|)))
 (let (($x7209 (and (or (<= (+ (+ ?x209 ?x1643) ?x8702) 19.0) (<= (+ ?x186 ?x3482) 4.0)) $x4487)))
 (let ((?x3265 (* 5.0 |v12:5|)))
 (let ((?x743 (* ?x1770 |v4:13|)))
 (let ((?x4813 (+ (+ (+ (+ (+ ?x8573 (* 16.0 |v16:1|)) (* ?x5943 ?x2097)) ?x6175) ?x743) ?x3265)))
 (let ((?x6168 (* 16.0 ?x7270)))
 (let ((?x5812 (+ (+ (+ (+ (+ ?x127 ?x4454) (* ?x5012 ?x2097)) (* 18.0 ?x7768)) ?x2032) ?x6168)))
 (let ((?x7299 (* 2.0 |v2:15|)))
 (let ((?x1800 (* ?x433 |v16:1|)))
 (let ((?x3529 (+ (+ (+ (+ (* 12.0 |v16:1|) (* 2.0 |v17:0|)) (* ?x72 |v12:5|)) ?x3790) ?x1800)))
 (let (($x6205 (and (<= (+ (+ ?x3529 ?x7299) ?x6746) 5.0) (<= (+ ?x5812 (* 12.0 |v13:4|)) 1.0))))
 (let (($x5735 (and (or (or $x6205 (<= (+ ?x4813 (* ?x5943 ?x7270)) ?x72)) $x7209) (<= (+ (+ ?x2391 ?x8702) ?x2914) 12.0))))
 (let ((?x1256 (* ?x5042 ?x2189)))
 (let ((?x530 (+ (+ (+ (* ?x72 ?x7270) (* ?x2087 |v16:1|)) (* 20.0 |v2:15|)) (* ?x2087 ?x7270))))
 (let ((?x1614 (* 15.0 |v15:2|)))
 (let ((?x5140 (+ (+ (+ (* 9.0 |v17:0|) (* ?x5012 |v5:12|)) (* ?x72 ?x2189)) (* ?x6390 |v17:0|))))
 (let ((?x5670 (* ?x3205 |v5:12|)))
 (let ((?x2048 (* ?x5128 |v16:1|)))
 (let ((?x1101 (* 0.0 |v4:13|)))
 (let ((?x3145 (+ (+ (+ (+ (* ?x3205 |v16:1|) (* 4.0 |v13:4|)) (* 7.0 |v2:15|)) ?x1101) ?x2048)))
 (let ((?x1089 (* 18.0 ?x7320)))
 (let ((?x2541 (* ?x5042 |v1:16|)))
 (let ((?x4480 (+ (+ (+ (+ (* ?x3205 |v4:13|) (* ?x3481 |v14:3|)) (* 6.0 ?x2097)) ?x2541) ?x3347)))
 (let (($x8936 (or (<= (+ (+ ?x4480 ?x6472) ?x1089) 4.0) (<= (+ (+ ?x3145 ?x5670) (* 17.0 |v16:1|)) ?x5042))))
 (let ((?x3325 (* 18.0 |v16:1|)))
 (let ((?x2039 (* ?x72 ?x2097)))
 (let ((?x4764 (+ (+ (+ (+ (* 7.0 |v17:0|) (* 12.0 |v16:1|)) (* 17.0 |v17:0|)) ?x3905) ?x2039)))
 (let ((?x7454 (* 12.0 |v1:16|)))
 (let ((?x6762 (+ (+ (+ (+ (* 4.0 ?x7768) (* 3.0 ?x1560)) ?x4541) (* 13.0 ?x7270)) ?x1580)))
 (let (($x3194 (and (<= (+ (+ ?x6762 ?x7094) ?x7454) 20.0) (<= (+ (+ ?x4764 ?x3325) ?x2128) ?x433))))
 (let (($x1589 (or (or $x3194 $x8936) (<= (+ (+ (+ ?x5140 ?x1614) (* ?x2724 |v16:1|)) |v5:12|) 15.0))))
 (let ((?x5944 (* ?x676 |v1:16|)))
 (let ((?x1511 (* ?x5012 |v5:12|)))
 (let ((?x9106 (+ (+ (+ (+ (* 2.0 ?x2097) ?x6848) (* 4.0 ?x7768)) (* 14.0 |v1:16|)) ?x1511)))
 (let ((?x6936 (* 16.0 |v15:2|)))
 (let ((?x868 (* 11.0 |v3:14|)))
 (let ((?x5849 (+ (+ (+ (+ (* ?x5128 ?x2097) (* ?x5012 ?x7270)) (* 3.0 ?x2097)) ?x868) (* 4.0 |v15:2|))))
 (let (($x2647 (or (<= (+ (+ ?x5849 ?x6936) (* ?x1770 |v13:4|)) 13.0) (<= (+ (+ ?x9106 ?x3482) ?x5944) ?x5864))))
 (let ((?x456 (* 10.0 |v3:14|)))
 (let ((?x14 (+ (+ (+ (+ (+ ?x4854 ?x722) ?x6627) (* ?x7947 |v2:15|)) (* 17.0 ?x2097)) ?x456)))
 (let ((?x4174 (+ (+ (+ (+ ?x1485 (* ?x5943 |v13:4|)) ?x7436) (* 8.0 |v3:14|)) (* 16.0 |v17:0|))))
 (let (($x2722 (and (<= (+ (+ ?x4174 ?x2541) (* ?x6208 ?x7320)) 3.0) (<= (+ ?x14 (* 7.0 ?x2189)) 4.0))))
 (let ((?x2166 (+ (+ (+ (+ (+ ?x5168 (* ?x5934 ?x7320)) ?x6151) ?x8686) (* ?x433 ?x2097)) (* ?x5042 |v13:4|))))
 (let ((?x391 (* 12.0 |v4:13|)))
 (let ((?x6457 (* ?x2087 |v4:13|)))
 (let ((?x5330 (+ (+ (+ (+ (+ ?x4541 ?x1089) (* ?x3205 |v16:1|)) (* 9.0 ?x7270)) ?x6457) ?x391)))
 (let ((?x7289 (* 2.0 |v4:13|)))
 (let ((?x1281 (+ (+ (+ (+ (+ (* 5.0 |v2:15|) ?x3791) ?x2129) ?x1614) (* 20.0 |v14:3|)) ?x7289)))
 (let ((?x502 (* 7.0 |v12:5|)))
 (let ((?x4783 (+ (+ (+ (+ (* 3.0 ?x2097) (* 8.0 |v16:1|)) ?x6590) (* ?x2724 |v4:13|)) ?x4213)))
 (let (($x8645 (and (<= (+ (+ ?x4783 ?x502) ?x5650) ?x72) (<= (+ ?x1281 (* ?x1606 |v13:4|)) ?x6390))))
 (let (($x2526 (and $x8645 (or (<= (+ ?x5330 ?x5715) ?x5934) (<= (+ ?x2166 (* 4.0 ?x2189)) 2.0)))))
 (let (($x3004 (and (or (or $x2526 (and $x2722 $x2647)) $x1589) (<= (+ (+ (+ ?x530 ?x546) ?x7109) ?x1256) 13.0))))
 (let (($x4184 (not (= |v6:11_st| (RMk1 val!9011)))))
 (let (($x3947 (not (= |v7:10_st| (RMk1 val!9010)))))
 (let (($x3746 (not (= |v8:9_st| (RMk1 val!9009)))))
 (let (($x3505 (not (= |v9:8_st| (RMk1 val!9008)))))
 (let (($x1202 (not (= |v10:7_st| (RMk1 val!9007)))))
 (let (($x2351 (not (= |v11:6_st| (RMk1 val!9006)))))
 (and $x2351 $x1202 $x3505 $x3746 $x3947 $x4184 (or (and $x3004 (and $x5735 $x1152)) (and $x7698 $x5746))))))))))))))))))))))))))))))))))))))))))))))))))))))))))))))))))))))))))))))))))))))))))))))))))))))))))))))))))))))))))))))))))))))))))))))))))))))))))))))))))))))))))))))))))))))))))))))))))))))))))))))))))))))))))))))))))))))))))))))))))))))))))))))))))))))))))))))))))))))))))))))))))))))))))))))))))))))))))))))))))))))))))))))))))))))))))))))))))))))
 )
 )
 )
 )
 )
 )
 )
 )
 )
 )
 )
 )
 )
 )
 )
 )
 )
 )
(check-sat)
